Route 1: 27 28 12 26 21 22 41 2 13 6 40
Route 2: 31 7 48 47 46 8 45 17 5 18
Route 3: 24 29 34 35 9 3 33 50 1
Route 4: 42 43 14 44 38 16 37
Route 5: 15 23 39 4 25
Route 6: 10 19 11 36 49 32 20 30
Vehicles: 6
Distance: 715.77
